clingo version 5.6.2
Reading from ...etition/0006-graph_colouring-125-0.asp ...
Solving...
Answer: 1

SATISFIABLE

Models       : 1+
Calls        : 1
Time         : 2.508s (Solving: 2.34s 1st Model: 2.34s Unsat: 0.00s)
CPU Time     : 2.505s

Choices      : 128961  
Conflicts    : 113158   (Analyzed: 113158)
Restarts     : 406      (Average: 278.71 Last: 94)
Model-Level  : 21.0    
Problems     : 1        (Average Length: 0.00 Splits: 0)
Lemmas       : 113158   (Deleted: 106673)
  Binary     : 0        (Ratio:   0.00%)
  Ternary    : 0        (Ratio:   0.00%)
  Conflict   : 113158   (Average Length:   41.6 Ratio: 100.00%) 
  Loop       : 0        (Average Length:    0.0 Ratio:   0.00%) 
  Other      : 0        (Average Length:    0.0 Ratio:   0.00%) 
Backjumps    : 113158   (Average:  1.10 Max:  12 Sum: 124933)
  Executed   : 113158   (Average:  1.10 Max:  12 Sum: 124933 Ratio: 100.00%)
  Bounded    : 0        (Average:  0.00 Max:   0 Sum:      0 Ratio:   0.00%)

Rules        : 16646   
Atoms        : 3058    
Bodies       : 1230    
Equivalences : 2430     (Atom=Atom: 16 Body=Body: 602 Other: 1812)
Tight        : Yes
Variables    : 731      (Eliminated:    0 Frozen:    0)
Constraints  : 6647     (Binary:  89.1% Ternary:   0.1% Other:  10.8%)

